0 164
1 141
2 86
3 17
4 199
5 165
6 82
7 45
8 19
9 182
10 200
11 0
12 88
13 59
14 9
15 191
16 54
17 28
18 33
19 48
20 110
21 133
22 163
23 88
24 162
25 76
26 175
27 28
28 86
29 94
30 180
31 115
32 152
33 120
34 192
35 11
36 164
37 36
38 18
39 34
40 48
41 46
42 59
43 32
44 49
45 172
46 61
47 12
48 66
49 200
50 144
51 42
52 90
53 97
54 20
55 154
56 171
57 155
58 171
59 136
60 157
61 76
62 107
63 162
64 161
65 15
66 126
67 44
68 129
69 78
70 44
71 79
72 177
73 8
74 13
75 178
76 108
77 42
78 40
79 164
80 12
81 199
82 39
83 50
84 184
85 133
86 104
87 93
88 47
89 21
90 40
91 35
92 72
93 88
94 193
95 25
96 118
97 145
98 120
99 74
